&control
    calculation = 'scf'
    restart_mode='from_scratch',
    prefix='silicon',
    pseudo_dir = './',
    outdir='./si-scf-van/'
 /
 &system
    ibrav=  5,
    celldm(1)= 7.307990295107341,
    celldm(4)= 0.5,
    nat=  2,
    ntyp= 1,
    ecutwfc = 160
 /
 &electrons
    mixing_mode = 'plain'
    mixing_beta = 0.7
    conv_thr =  1.0d-7
 /
ATOMIC_SPECIES
 Si  28.086  Si.pbe-n-van.UPF
ATOMIC_POSITIONS
 Si 0.00 0.00 0.00
 Si 0.50 0.50 0.50
K_POINTS automatic
8 8 8  0 0 0




